c Sudoku solution
p cnf 729 0
134 0
161 0
216 0
279 0
285 0
359 0
374 0
382 0
391 0
565 0
578 0
624 0
639 0
697 0
738 0
749 0
469 0
826 0
844 0
264 0
871 0
899 0
589 0
923 0
919 0
714 0
129 0
942 0
662 0
966 0
346 0
145 0
998 0
984 0
188 0
177 0
196 0
293 0
975 0
495 0
594 0
472 0
454 0
615 0
792 0
511 0
957 0
751 0
855 0
763 0
868 0
931 0
776 0
787 0
883 0
725 0
221 0
522 0
335 0
547 0
248 0
367 0
153 0
252 0
112 0
237 0
313 0
328 0
817 0
832 0
418 0
427 0
658 0
556 0
533 0
436 0
673 0
481 0
686 0
443 0
641 0
